sat
((X1 3068581))
((X2 3017867))
((X3 (- 448633)))
((X4 448633))
((X5 448633))
((X6 (- 578122)))
((X7 578122))
((X8 578122))
((X9 (- 3027883)))
((X10 3027883))
((X11 3027883))
((X12 184390))
((X13 (- 184390)))
((X14 184390))
((X15 849336))
((X16 (- 849336)))
((X17 849336))
((X18 774781))
((X19 (- 774781)))
((X20 774781))
((X21 (- 2902642)))
((X22 2902642))
((X23 2902642))
((X24 (- 2519278)))
((X25 2519278))
((X26 2519278))
((X27 438838))
((X28 (- 438838)))
((X29 438838))
((X30 (- 179181)))
((X31 179181))
((X32 179181))
((X33 (- 153513)))
((X34 153513))
((X35 153513))
((X36 (- 263601)))
((X37 263601))
((X38 263601))
((X39 600477))
((X40 (- 600477)))
((X41 600477))
((X42 (- 667136)))
((X43 667136))
((X44 667136))
((X45 (- 2527626)))
((X46 2527626))
((X47 2527626))
((X48 875445))
((X49 (- 875445)))
((X50 875445))
((X51 930443))
((X52 (- 930443)))
((X53 930443))
((X54 96393))
((X55 (- 96393)))
((X56 96393))
((X57 (- 238773)))
((X58 238773))
((X59 238773))
((X60 (- 811419)))
((X61 811419))
((X62 811419))
((X63 (- 1887777)))
((X64 1887777))
((X65 1887777))
((X66 (- 1905824)))
((X67 1905824))
((X68 1905824))
((X69 (- 109141)))
((X70 109141))
((X71 109141))
((X72 (- 965005)))
((X73 965005))
((X74 965005))
((X75 318499))
((X76 (- 318499)))
((X77 318499))
((X78 375995))
((X79 (- 375995)))
((X80 375995))
((X81 (- 985565)))
((X82 985565))
((X83 985565))
((X84 725982))
((X85 (- 725982)))
((X86 725982))
((X87 (- 1599695)))
((X88 1599695))
((X89 1599695))
((X90 (- 1420786)))
((X91 1420786))
((X92 1420786))
((X93 204759))
((X94 (- 204759)))
((X95 204759))
((X96 980165))
((X97 (- 980165)))
((X98 980165))
((X99 (- 93774)))
((X100 93774))
((X101 93774))
((X102 714937))
((X103 (- 714937)))
((X104 714937))
((X105 (- 1204164)))
((X106 1204164))
((X107 1204164))
((X108 (- 2657416)))
((X109 2657416))
((X110 2657416))
((X111 (- 1574495)))
((X112 1574495))
((X113 1574495))
((X114 12767))
((X115 (- 12767)))
((X116 12767))
((X117 922153))
((X118 (- 922153)))
((X119 922153))
((X120 (- 25976)))
((X121 25976))
((X122 25976))
((X123 (- 2947938)))
((X124 2947938))
((X125 2947938))
((X126 (- 138894)))
((X127 138894))
((X128 138894))
((X129 (- 3068092)))
((X130 3068092))
((X131 3068092))
((X132 (- 1776054)))
((X133 1776054))
((X134 1776054))
((X135 (- 2348197)))
((X136 2348197))
((X137 2348197))
((X138 (- 2883227)))
((X139 2883227))
((X140 2883227))
((X141 (- 194369)))
((X142 194369))
((X143 194369))
((X144 879191))
((X145 (- 879191)))
((X146 879191))
((X147 (- 259922)))
((X148 259922))
((X149 259922))
((X150 262404))
((X151 (- 262404)))
((X152 262404))
((X153 (- 180705)))
((X154 180705))
((X155 180705))
((X156 (- 911094)))
((X157 911094))
((X158 911094))
((X159 (- 488808)))
((X160 488808))
((X161 488808))
((X162 971759))
((X163 (- 971759)))
((X164 971759))
((X165 (- 477287)))
((X166 477287))
((X167 477287))
((X168 649470))
((X169 (- 649470)))
((X170 649470))
((X171 (- 5478)))
((X172 5478))
((X173 5478))
((X174 802709))
((X175 (- 802709)))
((X176 802709))
((X177 (- 892737)))
((X178 892737))
((X179 892737))
((X180 (- 1138691)))
((X181 1138691))
((X182 1138691))
((X183 (- 2096943)))
((X184 2096943))
((X185 2096943))
((X186 (- 2729695)))
((X187 2729695))
((X188 2729695))
((X189 375509))
((X190 (- 375509)))
((X191 375509))
((X192 (- 2260629)))
((X193 2260629))
((X194 2260629))
((X195 (- 26199)))
((X196 26199))
((X197 26199))
((X198 765894))
((X199 (- 765894)))
((X200 765894))
((X201 (- 2677299)))
((X202 2677299))
((X203 2677299))
((X204 (- 979697)))
((X205 979697))
((X206 979697))
